# Solution for model GasLib-40
# Objective value = 7.4068683730803855e+01
loadshed[innode_1] 0
loadshed[innode_2] 0
loadshed[innode_3] 0
loadshed[innode_4] 0
loadshed[innode_5] 0
loadshed[innode_6] 0
loadshed[innode_7] 0
loadshed[innode_8] 0
loadshed[source_1] -5.6536029401427657e-02
loadshed[source_2] 2.5950282697122673e-01
loadshed[source_3] 2.6555463696721859e-01
loadshed[sink_1] 0.876902399668248
loadshed[sink_2] 0
loadshed[sink_3] 0
loadshed[sink_4] 0
loadshed[sink_5] 0
loadshed[sink_6] 0
loadshed[sink_7] 0
loadshed[sink_8] 0
loadshed[sink_9] 7.3091302309945227e-01
loadshed[sink_10] 0
loadshed[sink_11] 0
loadshed[sink_12] 1
loadshed[sink_13] 0
loadshed[sink_14] 0
loadshed[sink_15] 0
loadshed[sink_16] 0
loadshed[sink_17] 0
loadshed[sink_18] 0
loadshed[sink_19] 0
loadshed[sink_20] 0
loadshed[sink_21] 1
loadshed[sink_22] 0
loadshed[sink_23] 0
loadshed[sink_24] 9.2122511109037020e-01
loadshed[sink_25] 0
loadshed[sink_26] 0
loadshed[sink_27] 0
loadshed[sink_28] 0
loadshed[sink_29] 0
flow[source_1,sink_3] 1.6702807437030208e+02
flow[innode_1,sink_16] 1.6354166666666970e+01
flow[innode_6,sink_13] -1.6295047877863524e+00
flow[sink_13,sink_14] -1.7983671454453020e+01
flow[sink_14,sink_10] -3.4337838121119688e+01
flow[sink_25,sink_26] 1.7124381626919526e+02
flow[sink_26,sink_9] 0
flow[sink_9,sink_18] -4.4006932680610413e+00
flow[sink_26,sink_4] 1.5488964960252861e+02
flow[sink_4,sink_20] 35.0146078619951
flow[sink_18,sink_6] -2.0754859934727708e+01
flow[sink_25,innode_8] -1.3431974103696570e+02
flow[sink_6,sink_7] -5.5476351940153208e+01
flow[sink_6,sink_22] 1.8367325338758860e+01
flow[sink_7,sink_24] 1.2882976623762383e+00
flow[sink_22,sink_1] 2.0131586720921937e+00
flow[sink_24,sink_21] 0
flow[sink_21,sink_12] 0
flow[sink_7,sink_5] -73.1188162691961
flow[sink_5,sink_17] -8.9472982935862774e+01
flow[sink_17,sink_4] -1.0352087507386764e+02
flow[sink_17,sink_8] -2.3062745286617883e+00
flow[sink_3,sink_23] 16.3541666666697
flow[sink_8,sink_20] -1.8660441195328417e+01
flow[sink_25,sink_20] 0
flow[sink_25,sink_15] -5.1648737111110037e+01
flow[sink_15,sink_29] 0
flow[sink_29,sink_28] 1.6354166666667879e+01
flow[sink_29,sink_2] 8.4357070444443380e+01
flow[sink_2,sink_15] 6.8002903777776709e+01
flow[sink_29,innode_7] -1.1706540377777793e+02
flow[innode_4,sink_19] 4.4880477930202751e+01
flow[sink_19,innode_3] 4.0699012970471017e+01
flow[innode_4,innode_5] 71.2281935242505
flow[sink_27,innode_5] -71.2281935242505
flow[sink_27,sink_19] 5.4874026857583829e+01
flow[sink_10,sink_11] 3.2708333333333641e+01
flow[sink_10,innode_2] -4.2701325150648977e+01
flow[sink_10,innode_3] -4.0699012970471017e+01
flow[innode_6,sink_25] 1.6295047877863524e+00
flow[sink_11,innode_1] 1.6354166666666970e+01
flow[sink_19,innode_2] 4.2701325150648977e+01
flow[source_3,innode_4] 1.1610867145445326e+02
flow[source_2,innode_7] 1.1706540377777793e+02
flow[sink_3,innode_8] 1.3431974103696570e+02
pressure[innode_1] 7.6786384778873625e+01
pressure[innode_2] 7.9195027482937945e+01
pressure[innode_3] 79.1049041273781
pressure[innode_4] 81.01325
pressure[innode_5] 8.0964255492619742e+01
pressure[innode_6] 7.5272788059168874e+01
pressure[innode_7] 81.01325
pressure[innode_8] 8.0454938954417244e+01
pressure[source_1] 81.01325
pressure[source_2] 81.01325
pressure[source_3] 81.01325
pressure[sink_1] 1.0132500000000002e+00
pressure[sink_2] 7.5745349255050783e+01
pressure[sink_3] 8.0454938954417244e+01
pressure[sink_4] 4.3519115722471348e+01
pressure[sink_5] 3.2897798727256486e+01
pressure[sink_6] 1.7266967543563365e+00
pressure[sink_7] 2.4882548308856474e+00
pressure[sink_8] 3.9649910956202405e+01
pressure[sink_9] 1.01325
pressure[sink_10] 7.6938086086477171e+01
pressure[sink_11] 7.6786384778873625e+01
pressure[sink_12] 1.01325
pressure[sink_13] 75.2817712467484
pressure[sink_14] 7.5313954558686234e+01
pressure[sink_15] 7.5523334761814922e+01
pressure[sink_16] 7.5764734944055945e+01
pressure[sink_17] 39.5628892266821
pressure[sink_18] 1.1724801987601419e+00
pressure[sink_19] 7.9195027482937945e+01
pressure[sink_20] 4.0950281280674510e+01
pressure[sink_21] 1.01325
pressure[sink_22] 1.1441974287308654e+00
pressure[sink_23] 8.0290220942757458e+01
pressure[sink_24] 1.01325
pressure[sink_25] 7.5272788059168874e+01
pressure[sink_26] 6.3212186645245637e+01
pressure[sink_27] 8.0373193101918261e+01
pressure[sink_28] 7.7586926778519668e+01
pressure[sink_29] 7.7882209052136844e+01
interdiction[source_1,sink_3] 0
interdiction[innode_1,sink_16] 0
interdiction[innode_6,sink_13] 0
interdiction[sink_13,sink_14] 0
interdiction[sink_14,sink_10] 0
interdiction[sink_25,sink_26] 0
interdiction[sink_26,sink_9] 1
interdiction[sink_9,sink_18] 0
interdiction[sink_26,sink_4] 0
interdiction[sink_4,sink_20] 0
interdiction[sink_18,sink_6] 0
interdiction[sink_25,innode_8] 0
interdiction[sink_6,sink_7] 0
interdiction[sink_6,sink_22] 0
interdiction[sink_7,sink_24] 0
interdiction[sink_22,sink_1] 0
interdiction[sink_24,sink_21] 0
interdiction[sink_21,sink_12] 0
interdiction[sink_7,sink_5] 0
interdiction[sink_5,sink_17] 0
interdiction[sink_17,sink_4] 0
interdiction[sink_17,sink_8] 0
interdiction[sink_3,sink_23] 0
interdiction[sink_8,sink_20] 0
interdiction[sink_25,sink_20] 1
interdiction[sink_25,sink_15] 0
interdiction[sink_15,sink_29] 1
interdiction[sink_29,sink_28] 0
interdiction[sink_29,sink_2] 0
interdiction[sink_2,sink_15] 0
interdiction[sink_29,innode_7] 0
interdiction[innode_4,sink_19] 0
interdiction[sink_19,innode_3] 0
interdiction[innode_4,innode_5] 0
interdiction[sink_27,innode_5] 0
interdiction[sink_27,sink_19] 0
interdiction[sink_10,sink_11] 0
interdiction[sink_10,innode_2] 0
interdiction[sink_10,innode_3] 0
interdiction[innode_6,sink_25] 0
interdiction[sink_11,innode_1] 0
interdiction[sink_19,innode_2] 0
interdiction[source_3,innode_4] 0
interdiction[source_2,innode_7] 0
interdiction[sink_3,innode_8] 0
WCcheckFlow[source_1,sink_3] 39
WCcheckFlow[innode_1,sink_16] 1
WCcheckFlow[innode_6,sink_13] 13
WCcheckFlow[sink_13,sink_14] 12
WCcheckFlow[sink_14,sink_10] 11
WCcheckFlow[sink_25,sink_26] 15
WCcheckFlow[sink_26,sink_9] 0
WCcheckFlow[sink_9,sink_18] -1
WCcheckFlow[sink_26,sink_4] 14
WCcheckFlow[sink_4,sink_20] 1
WCcheckFlow[sink_18,sink_6] -2
WCcheckFlow[sink_25,innode_8] -36
WCcheckFlow[sink_6,sink_7] -5
WCcheckFlow[sink_6,sink_22] 2
WCcheckFlow[sink_7,sink_24] 3
WCcheckFlow[sink_22,sink_1] 1
WCcheckFlow[sink_24,sink_21] 2
WCcheckFlow[sink_21,sink_12] 1
WCcheckFlow[sink_7,sink_5] -9
WCcheckFlow[sink_5,sink_17] -10
WCcheckFlow[sink_17,sink_4] -12
WCcheckFlow[sink_17,sink_8] 1
WCcheckFlow[sink_3,sink_23] 1
WCcheckFlow[sink_8,sink_20] 0
WCcheckFlow[sink_25,sink_20] 0
WCcheckFlow[sink_25,sink_15] 6
WCcheckFlow[sink_15,sink_29] 0
WCcheckFlow[sink_29,sink_28] 1
WCcheckFlow[sink_29,sink_2] -4
WCcheckFlow[sink_2,sink_15] -5
WCcheckFlow[sink_29,innode_7] 2
WCcheckFlow[innode_4,sink_19] -4
WCcheckFlow[sink_19,innode_3] -5
WCcheckFlow[innode_4,innode_5] 2
WCcheckFlow[sink_27,innode_5] -1
WCcheckFlow[sink_27,sink_19] 0
WCcheckFlow[sink_10,sink_11] 3
WCcheckFlow[sink_10,innode_2] 1
WCcheckFlow[sink_10,innode_3] 6
WCcheckFlow[innode_6,sink_25] -14
WCcheckFlow[sink_11,innode_1] 2
WCcheckFlow[sink_19,innode_2] 0
WCcheckFlow[source_3,innode_4] -1
WCcheckFlow[source_2,innode_7] -1
WCcheckFlow[sink_3,innode_8] 37
